p cnf 42 364
1 2 3 4 5 6 0
7 8 9 10 11 12 0
13 14 15 16 17 18 0
19 20 21 22 23 24 0
25 26 27 28 29 30 0
31 32 33 34 35 36 0
37 38 39 40 41 42 0
-1 -2 0
-1 -3 0
-1 -4 0
-1 -5 0
-1 -6 0
-2 -3 0
-2 -4 0
-2 -5 0
-2 -6 0
-3 -4 0
-3 -5 0
-3 -6 0
-4 -5 0
-4 -6 0
-5 -6 0
-7 -8 0
-7 -9 0
-7 -10 0
-7 -11 0
-7 -12 0
-8 -9 0
-8 -10 0
-8 -11 0
-8 -12 0
-9 -10 0
-9 -11 0
-9 -12 0
-10 -11 0
-10 -12 0
-11 -12 0
-13 -14 0
-13 -15 0
-13 -16 0
-13 -17 0
-13 -18 0
-14 -15 0
-14 -16 0
-14 -17 0
-14 -18 0
-15 -16 0
-15 -17 0
-15 -18 0
-16 -17 0
-16 -18 0
-17 -18 0
-19 -20 0
-19 -21 0
-19 -22 0
-19 -23 0
-19 -24 0
-20 -21 0
-20 -22 0
-20 -23 0
-20 -24 0
-21 -22 0
-21 -23 0
-21 -24 0
-22 -23 0
-22 -24 0
-23 -24 0
-25 -26 0
-25 -27 0
-25 -28 0
-25 -29 0
-25 -30 0
-26 -27 0
-26 -28 0
-26 -29 0
-26 -30 0
-27 -28 0
-27 -29 0
-27 -30 0
-28 -29 0
-28 -30 0
-29 -30 0
-31 -32 0
-31 -33 0
-31 -34 0
-31 -35 0
-31 -36 0
-32 -33 0
-32 -34 0
-32 -35 0
-32 -36 0
-33 -34 0
-33 -35 0
-33 -36 0
-34 -35 0
-34 -36 0
-35 -36 0
-37 -38 0
-37 -39 0
-37 -40 0
-37 -41 0
-37 -42 0
-38 -39 0
-38 -40 0
-38 -41 0
-38 -42 0
-39 -40 0
-39 -41 0
-39 -42 0
-40 -41 0
-40 -42 0
-41 -42 0
-1 8 9 10 11 12 0
-2 7 9 10 11 12 0
-3 7 8 10 11 12 0
-4 7 8 9 11 12 0
-5 7 8 9 10 12 0
-6 7 8 9 10 11 0
-1 14 15 16 17 18 0
-2 13 15 16 17 18 0
-3 13 14 16 17 18 0
-4 13 14 15 17 18 0
-5 13 14 15 16 18 0
-6 13 14 15 16 17 0
-1 20 21 22 23 24 0
-2 19 21 22 23 24 0
-3 19 20 22 23 24 0
-4 19 20 21 23 24 0
-5 19 20 21 22 24 0
-6 19 20 21 22 23 0
-1 26 27 28 29 30 0
-2 25 27 28 29 30 0
-3 25 26 28 29 30 0
-4 25 26 27 29 30 0
-5 25 26 27 28 30 0
-6 25 26 27 28 29 0
-1 32 33 34 35 36 0
-2 31 33 34 35 36 0
-3 31 32 34 35 36 0
-4 31 32 33 35 36 0
-5 31 32 33 34 36 0
-6 31 32 33 34 35 0
-1 38 39 40 41 42 0
-2 37 39 40 41 42 0
-3 37 38 40 41 42 0
-4 37 38 39 41 42 0
-5 37 38 39 40 42 0
-6 37 38 39 40 41 0
-7 2 3 4 5 6 0
-8 1 3 4 5 6 0
-9 1 2 4 5 6 0
-10 1 2 3 5 6 0
-11 1 2 3 4 6 0
-12 1 2 3 4 5 0
-7 14 15 16 17 18 0
-8 13 15 16 17 18 0
-9 13 14 16 17 18 0
-10 13 14 15 17 18 0
-11 13 14 15 16 18 0
-12 13 14 15 16 17 0
-7 20 21 22 23 24 0
-8 19 21 22 23 24 0
-9 19 20 22 23 24 0
-10 19 20 21 23 24 0
-11 19 20 21 22 24 0
-12 19 20 21 22 23 0
-7 26 27 28 29 30 0
-8 25 27 28 29 30 0
-9 25 26 28 29 30 0
-10 25 26 27 29 30 0
-11 25 26 27 28 30 0
-12 25 26 27 28 29 0
-7 32 33 34 35 36 0
-8 31 33 34 35 36 0
-9 31 32 34 35 36 0
-10 31 32 33 35 36 0
-11 31 32 33 34 36 0
-12 31 32 33 34 35 0
-7 38 39 40 41 42 0
-8 37 39 40 41 42 0
-9 37 38 40 41 42 0
-10 37 38 39 41 42 0
-11 37 38 39 40 42 0
-12 37 38 39 40 41 0
-13 2 3 4 5 6 0
-14 1 3 4 5 6 0
-15 1 2 4 5 6 0
-16 1 2 3 5 6 0
-17 1 2 3 4 6 0
-18 1 2 3 4 5 0
-13 8 9 10 11 12 0
-14 7 9 10 11 12 0
-15 7 8 10 11 12 0
-16 7 8 9 11 12 0
-17 7 8 9 10 12 0
-18 7 8 9 10 11 0
-13 20 21 22 23 24 0
-14 19 21 22 23 24 0
-15 19 20 22 23 24 0
-16 19 20 21 23 24 0
-17 19 20 21 22 24 0
-18 19 20 21 22 23 0
-13 26 27 28 29 30 0
-14 25 27 28 29 30 0
-15 25 26 28 29 30 0
-16 25 26 27 29 30 0
-17 25 26 27 28 30 0
-18 25 26 27 28 29 0
-13 32 33 34 35 36 0
-14 31 33 34 35 36 0
-15 31 32 34 35 36 0
-16 31 32 33 35 36 0
-17 31 32 33 34 36 0
-18 31 32 33 34 35 0
-13 38 39 40 41 42 0
-14 37 39 40 41 42 0
-15 37 38 40 41 42 0
-16 37 38 39 41 42 0
-17 37 38 39 40 42 0
-18 37 38 39 40 41 0
-19 2 3 4 5 6 0
-20 1 3 4 5 6 0
-21 1 2 4 5 6 0
-22 1 2 3 5 6 0
-23 1 2 3 4 6 0
-24 1 2 3 4 5 0
-19 8 9 10 11 12 0
-20 7 9 10 11 12 0
-21 7 8 10 11 12 0
-22 7 8 9 11 12 0
-23 7 8 9 10 12 0
-24 7 8 9 10 11 0
-19 14 15 16 17 18 0
-20 13 15 16 17 18 0
-21 13 14 16 17 18 0
-22 13 14 15 17 18 0
-23 13 14 15 16 18 0
-24 13 14 15 16 17 0
-19 26 27 28 29 30 0
-20 25 27 28 29 30 0
-21 25 26 28 29 30 0
-22 25 26 27 29 30 0
-23 25 26 27 28 30 0
-24 25 26 27 28 29 0
-19 32 33 34 35 36 0
-20 31 33 34 35 36 0
-21 31 32 34 35 36 0
-22 31 32 33 35 36 0
-23 31 32 33 34 36 0
-24 31 32 33 34 35 0
-19 38 39 40 41 42 0
-20 37 39 40 41 42 0
-21 37 38 40 41 42 0
-22 37 38 39 41 42 0
-23 37 38 39 40 42 0
-24 37 38 39 40 41 0
-25 2 3 4 5 6 0
-26 1 3 4 5 6 0
-27 1 2 4 5 6 0
-28 1 2 3 5 6 0
-29 1 2 3 4 6 0
-30 1 2 3 4 5 0
-25 8 9 10 11 12 0
-26 7 9 10 11 12 0
-27 7 8 10 11 12 0
-28 7 8 9 11 12 0
-29 7 8 9 10 12 0
-30 7 8 9 10 11 0
-25 14 15 16 17 18 0
-26 13 15 16 17 18 0
-27 13 14 16 17 18 0
-28 13 14 15 17 18 0
-29 13 14 15 16 18 0
-30 13 14 15 16 17 0
-25 20 21 22 23 24 0
-26 19 21 22 23 24 0
-27 19 20 22 23 24 0
-28 19 20 21 23 24 0
-29 19 20 21 22 24 0
-30 19 20 21 22 23 0
-25 32 33 34 35 36 0
-26 31 33 34 35 36 0
-27 31 32 34 35 36 0
-28 31 32 33 35 36 0
-29 31 32 33 34 36 0
-30 31 32 33 34 35 0
-25 38 39 40 41 42 0
-26 37 39 40 41 42 0
-27 37 38 40 41 42 0
-28 37 38 39 41 42 0
-29 37 38 39 40 42 0
-30 37 38 39 40 41 0
-31 2 3 4 5 6 0
-32 1 3 4 5 6 0
-33 1 2 4 5 6 0
-34 1 2 3 5 6 0
-35 1 2 3 4 6 0
-36 1 2 3 4 5 0
-31 8 9 10 11 12 0
-32 7 9 10 11 12 0
-33 7 8 10 11 12 0
-34 7 8 9 11 12 0
-35 7 8 9 10 12 0
-36 7 8 9 10 11 0
-31 14 15 16 17 18 0
-32 13 15 16 17 18 0
-33 13 14 16 17 18 0
-34 13 14 15 17 18 0
-35 13 14 15 16 18 0
-36 13 14 15 16 17 0
-31 20 21 22 23 24 0
-32 19 21 22 23 24 0
-33 19 20 22 23 24 0
-34 19 20 21 23 24 0
-35 19 20 21 22 24 0
-36 19 20 21 22 23 0
-31 26 27 28 29 30 0
-32 25 27 28 29 30 0
-33 25 26 28 29 30 0
-34 25 26 27 29 30 0
-35 25 26 27 28 30 0
-36 25 26 27 28 29 0
-31 38 39 40 41 42 0
-32 37 39 40 41 42 0
-33 37 38 40 41 42 0
-34 37 38 39 41 42 0
-35 37 38 39 40 42 0
-36 37 38 39 40 41 0
-37 2 3 4 5 6 0
-38 1 3 4 5 6 0
-39 1 2 4 5 6 0
-40 1 2 3 5 6 0
-41 1 2 3 4 6 0
-42 1 2 3 4 5 0
-37 8 9 10 11 12 0
-38 7 9 10 11 12 0
-39 7 8 10 11 12 0
-40 7 8 9 11 12 0
-41 7 8 9 10 12 0
-42 7 8 9 10 11 0
-37 14 15 16 17 18 0
-38 13 15 16 17 18 0
-39 13 14 16 17 18 0
-40 13 14 15 17 18 0
-41 13 14 15 16 18 0
-42 13 14 15 16 17 0
-37 20 21 22 23 24 0
-38 19 21 22 23 24 0
-39 19 20 22 23 24 0
-40 19 20 21 23 24 0
-41 19 20 21 22 24 0
-42 19 20 21 22 23 0
-37 26 27 28 29 30 0
-38 25 27 28 29 30 0
-39 25 26 28 29 30 0
-40 25 26 27 29 30 0
-41 25 26 27 28 30 0
-42 25 26 27 28 29 0
-37 32 33 34 35 36 0
-38 31 33 34 35 36 0
-39 31 32 34 35 36 0
-40 31 32 33 35 36 0
-41 31 32 33 34 36 0
-42 31 32 33 34 35 0
